 C  H                                   
   1.00000000000000     
    19.7119999999999997    0.0000000000000000    0.0000000000000000
    -9.8559999999999963   17.0710927593988551    0.0000000000000000
     0.0000000000000000    0.0000000000000000   15.0000000000000000
   C    H 
   136    12
Direct
  0.0403658963710289  0.0835098708547557  0.0491132821379222
  0.0821006218338644  0.0418572071475395  0.0492498835362137
  0.0403723373704940  0.2084754958325232  0.0500430042669165
  0.0820772159975242  0.1668520860163532  0.0494041902357273
  0.0404341735613361  0.3334728123024868  0.0520714739556941
  0.0821119440701651  0.2918604959224654  0.0513830355407970
  0.0403929509567999  0.4584175548308108  0.0548172927338240
  0.0821361996913047  0.4168083997627922  0.0546415262585128
  0.1654283819504407  0.0835134518201051  0.0497034188943365
  0.2070542911834235  0.0417654498487783  0.0514601458558883
  0.1654406951234195  0.2085408010987801  0.0496514476865119
  0.2071099211684138  0.1668496809981468  0.0495370534905483
  0.1654370292709631  0.3335443822430112  0.0524654365928358
  0.2071115706596657  0.2918984633184533  0.0510708469684401
  0.1653778733460760  0.4583764959437031  0.0575755406360154
  0.2070583966018434  0.4168981932188053  0.0557790832091873
  0.2905015909890972  0.0833029267426510  0.0523631201484352
  0.3320310311623347  0.0415613083409112  0.0561715143499128
  0.2904723204531542  0.2084868714040206  0.0499106830396537
  0.3321274125162170  0.1667272434912392  0.0507618448496061
  0.2904790925616150  0.3336556339922956  0.0516152737869108
  0.3320965873579782  0.2918846214714005  0.0504109443663594
  0.2905025475425435  0.4588354383228274  0.0572061123430820
  0.3321242074346356  0.4170580024396913  0.0541816637876933
  0.4155503523138147  0.0833267125918494  0.0563222799665277
  0.4572514767713839  0.0417096190058179  0.0608838017750339
  0.4154537057284835  0.2083936359134238  0.0508669421164503
  0.4570810831524685  0.1666010783153327  0.0526222887873263
  0.4154611199128606  0.3335707698197111  0.0504536516817726
  0.4570978951271586  0.2918097584467640  0.0500389957929812
  0.4154513271981459  0.4587270973372556  0.0542105130327686
  0.4570889671753803  0.4169628357026063  0.0516780219317752
  0.0404437257650393  0.5833969894270491  0.0578191168848463
  0.0819672244716882  0.5416776120848431  0.0583752892360423
  0.0404711751759988  0.7086389896572101  0.0564423419429793
  0.0824261585998792  0.6670137147735576  0.0609370412181253
  0.0403998625573484  0.8335617319552580  0.0520282808351149
  0.0819950160445093  0.7918776253032374  0.0554374355795103
  0.0404142735312484  0.9585560994444107  0.0496152068420651
  0.0821270579929304  0.9169160320021161  0.0511609469378118
  0.1651927855149632  0.5831160853435066  0.0636460926007200
  0.2070534460138738  0.5417941768065393  0.0629628547848914
  0.1649571884571613  0.7083078725738987  0.0687949525628686
  0.2067921105437143  0.6662109799803603  0.0719217025788189
  0.1652670119454260  0.8336912610063700  0.0592482213411751
  0.2069070904517159  0.7922799114100115  0.0685092706099628
  0.1653817107387994  0.9585888719186401  0.0528597583525309
  0.2070780514477670  0.9168453191229838  0.0573811589902964
  0.2902890833255886  0.5836928735606370  0.0671204343040790
  0.3320083572744378  0.5420785123279994  0.0623054780139000
  0.2887293389688632  0.7063543584463445  0.0836791876235033
  0.3312829575095529  0.6669722717435923  0.0775602004638264
  0.2889631505607405  0.8342316407163551  0.0790311109177012
  0.3275134286552112  0.7901760517901232  0.1121153783576312
  0.2903276489216394  0.9582265603740588  0.0606086288839306
  0.3313781191947807  0.9160752956295004  0.0711138899096967
  0.4155525719466222  0.5838585305967986  0.0623637164722413
  0.4570695087727401  0.5421304769205099  0.0572812692579745
  0.4162704876853250  0.7094618649532799  0.0776407233532636
  0.4572698461263288  0.6671904193552389  0.0672568303980279
  0.4199736731284586  0.8364396817023998  0.1121199553142004
  0.4588151975126805  0.7914121439136022  0.0838449433462626
  0.4162017670288528  0.9585110079476286  0.0711730681045822
  0.4586025001090752  0.9190798426254879  0.0791557500955799
  0.5405103843910030  0.0835795792304795  0.0579336795816809
  0.5823207544995765  0.0422407273355119  0.0598550475283153
  0.5405285010533718  0.2085164665866960  0.0518928929977104
  0.5821994676746151  0.1670182891320960  0.0534441057179863
  0.5404632888512628  0.3335366501318672  0.0497432902115285
  0.5821531856765007  0.2918901579441773  0.0500515830063798
  0.5404601377617748  0.4585838174403307  0.0511619750981093
  0.5821237968179086  0.4168913995307475  0.0497822160794229
  0.6655965432618758  0.0836968492816580  0.0561125060104129
  0.7071151721909666  0.0419761692788680  0.0570406541444744
  0.6654616612351316  0.2085929355880005  0.0517728873115067
  0.7071912117195400  0.1669757731968533  0.0526709770671638
  0.6654862760201844  0.3335563680652645  0.0495726490715972
  0.7071664060852196  0.2919399136524781  0.0500465621785647
  0.6654905710199760  0.4585624501435788  0.0494994254004038
  0.7072051830790219  0.4169389473607424  0.0492734235583461
  0.7902954640908958  0.0834640862598046  0.0536623183743307
  0.8320656174799711  0.0418270271381865  0.0529122526306763
  0.7904568218997071  0.2085490815375155  0.0513334531415283
  0.8320543262429427  0.1668453511414518  0.0516526974866654
  0.7905092645988556  0.3335800286698851  0.0499493798284109
  0.8321667448832272  0.2919228589175646  0.0504161397582622
  0.7905220338493696  0.4585670292413996  0.0498505763634918
  0.8322035005871601  0.4169207829857780  0.0502290653171181
  0.9152861260431056  0.0834417001701859  0.0507336219291988
  0.9570573510257160  0.0418241927120192  0.0498183534255469
  0.9153977337154583  0.2084908384306773  0.0507360415169012
  0.9570655155026688  0.1668386919082113  0.0503303979669209
  0.9154346079390050  0.3334894853829863  0.0509572801478413
  0.9570922755441647  0.2918319487037525  0.0510020297637311
  0.9155387639167567  0.4585452171493516  0.0518832013802475
  0.9571454147303815  0.4168536321367920  0.0522664077448251
  0.5405195607816411  0.5836387012740941  0.0559059188445196
  0.5821377995072553  0.5419017615763988  0.0525541671875504
  0.5405210583111395  0.7085375302941749  0.0631881823822508
  0.5821948931664325  0.6667896227025616  0.0577683489877198
  0.5407769395499671  0.8332087333097311  0.0722110209531766
  0.5823747273963895  0.7917099764571955  0.0639410767063892
  0.5406894122877065  0.9591893237145778  0.0689128195512732
  0.5826195256653351  0.9171534956153431  0.0692068287684962
  0.6654671453587150  0.5835409450113410  0.0514277193368558
  0.7071957569980897  0.5418859496494897  0.0500535008431790
  0.6654376867507521  0.7084654039726282  0.0548009729803104
  0.7071388243623337  0.6668273273603028  0.0521133312447454
  0.6656118475599893  0.8335086284103809  0.0587241103908470
  0.7071821781064261  0.7918145067569554  0.0550439118377911
  0.6651599127766312  0.9583942079509099  0.0614511981519537
  0.7071336861344156  0.9167487779543251  0.0582432454891948
  0.7905139346507835  0.5835637600522565  0.0502194816018424
  0.8322942525735726  0.5419515199424085  0.0505930352918768
  0.7904810660030563  0.7085231665738702  0.0509124908669101
  0.8321865654366751  0.6668832974915238  0.0505187412519483
  0.7904330389467583  0.8335013007583877  0.0523603952312950
  0.8321376606633948  0.7918358128740750  0.0508507927443006
  0.7902965845899287  0.9584246188448678  0.0541729489275414
  0.8320440790056627  0.9167985784267754  0.0520144950405965
  0.9155225470596396  0.5835577251261428  0.0525759598992251
  0.9572825387846982  0.5419157907370609  0.0538457567678076
  0.9155341672509534  0.7085859181903722  0.0512325805030601
  0.9572881295133279  0.6669611808326183  0.0531709737026783
  0.9154078588913502  0.8335316783608122  0.0501168170544822
  0.9571335710495648  0.7918828649807770  0.0508551571102993
  0.9153797383977109  0.9584978461568034  0.0501707559306575
  0.9570689619413220  0.9168467065600591  0.0496649609509286
  0.4777552150690440  0.8807292947306625  0.2808844985751907
  0.4705207401384357  0.9450416846244853  0.3320395974661589
  0.4134020710333926  0.8380273618347166  0.2150395044372792
  0.3340267597346213  0.7983807663718275  0.2150599219967333
  0.4283360534505341  0.9182724886876361  0.4221445991601378
  0.2694450617196025  0.7742577107537159  0.2811186085990489
  0.3518770966692134  0.8392079384495728  0.4224270543180496
  0.2875173066056784  0.8322984791103233  0.3582480841593618
  0.5336639535096265  0.9073318057597947  0.2444880941747197
  0.4801084128898562  0.8392907333394340  0.3285027365605830
  0.5294034174964087  0.9953522328724713  0.3438906073093927
  0.4405597470426978  0.9668593413281049  0.2885930833746956
  0.3651384032224053  0.7922973071310103  0.4073475381497497
  0.4686265709938095  0.9147918036071767  0.4704908263704910
  0.4167960153471441  0.9641083308907213  0.4473004826829911
  0.2171865590373878  0.7659686630271660  0.2449232065829434
  0.2532513626964678  0.7161103182386194  0.3086892230669526
  0.3292188737428640  0.8276595550240606  0.4911259022378166
  0.3037778291618718  0.8900451291949960  0.3300296267634692
  0.2327566702144077  0.8132581809297190  0.3952836521829161
 
             NaN             NaN             NaN
             NaN             NaN             NaN
             NaN             NaN             NaN
             NaN             NaN             NaN
             NaN             NaN             NaN
             NaN             NaN             NaN
             NaN             NaN             NaN
             NaN             NaN             NaN
             NaN             NaN             NaN
             NaN             NaN             NaN
             NaN             NaN             NaN
             NaN             NaN             NaN
             NaN             NaN             NaN
             NaN             NaN             NaN
             NaN             NaN             NaN
             NaN             NaN             NaN
             NaN             NaN             NaN
             NaN             NaN             NaN
             NaN             NaN             NaN
             NaN             NaN             NaN
             NaN             NaN             NaN
             NaN             NaN             NaN
             NaN             NaN             NaN
             NaN             NaN             NaN
             NaN             NaN             NaN
             NaN             NaN             NaN
             NaN             NaN             NaN
             NaN             NaN             NaN
             NaN             NaN             NaN
             NaN             NaN             NaN
             NaN             NaN             NaN
             NaN             NaN             NaN
             NaN             NaN             NaN
             NaN             NaN             NaN
             NaN             NaN             NaN
             NaN             NaN             NaN
             NaN             NaN             NaN
             NaN             NaN             NaN
             NaN             NaN             NaN
             NaN             NaN             NaN
             NaN             NaN             NaN
             NaN             NaN             NaN
             NaN             NaN             NaN
             NaN             NaN             NaN
             NaN             NaN             NaN
             NaN             NaN             NaN
             NaN             NaN             NaN
             NaN             NaN             NaN
             NaN             NaN             NaN
             NaN             NaN             NaN
             NaN             NaN             NaN
             NaN             NaN             NaN
             NaN             NaN             NaN
             NaN             NaN             NaN
             NaN             NaN             NaN
             NaN             NaN             NaN
             NaN             NaN             NaN
             NaN             NaN             NaN
             NaN             NaN             NaN
             NaN             NaN             NaN
             NaN             NaN             NaN
             NaN             NaN             NaN
             NaN             NaN             NaN
             NaN             NaN             NaN
             NaN             NaN             NaN
             NaN             NaN             NaN
             NaN             NaN             NaN
             NaN             NaN             NaN
             NaN             NaN             NaN
             NaN             NaN             NaN
             NaN             NaN             NaN
             NaN             NaN             NaN
             NaN             NaN             NaN
             NaN             NaN             NaN
             NaN             NaN             NaN
             NaN             NaN             NaN
             NaN             NaN             NaN
             NaN             NaN             NaN
             NaN             NaN             NaN
             NaN             NaN             NaN
             NaN             NaN             NaN
             NaN             NaN             NaN
             NaN             NaN             NaN
             NaN             NaN             NaN
             NaN             NaN             NaN
             NaN             NaN             NaN
             NaN             NaN             NaN
             NaN             NaN             NaN
             NaN             NaN             NaN
             NaN             NaN             NaN
             NaN             NaN             NaN
             NaN             NaN             NaN
             NaN             NaN             NaN
             NaN             NaN             NaN
             NaN             NaN             NaN
             NaN             NaN             NaN
             NaN             NaN             NaN
             NaN             NaN             NaN
             NaN             NaN             NaN
             NaN             NaN             NaN
             NaN             NaN             NaN
             NaN             NaN             NaN
             NaN             NaN             NaN
             NaN             NaN             NaN
             NaN             NaN             NaN
             NaN             NaN             NaN
             NaN             NaN             NaN
             NaN             NaN             NaN
             NaN             NaN             NaN
             NaN             NaN             NaN
             NaN             NaN             NaN
             NaN             NaN             NaN
             NaN             NaN             NaN
             NaN             NaN             NaN
             NaN             NaN             NaN
             NaN             NaN             NaN
             NaN             NaN             NaN
             NaN             NaN             NaN
             NaN             NaN             NaN
             NaN             NaN             NaN
             NaN             NaN             NaN
             NaN             NaN             NaN
             NaN             NaN             NaN
             NaN             NaN             NaN
             NaN             NaN             NaN
             NaN             NaN             NaN
             NaN             NaN             NaN
             NaN             NaN             NaN
             NaN             NaN             NaN
             NaN             NaN             NaN
             NaN             NaN             NaN
             NaN             NaN             NaN
             NaN             NaN             NaN
             NaN             NaN             NaN
             NaN             NaN             NaN
             NaN             NaN             NaN
             NaN             NaN             NaN
             NaN             NaN             NaN
             NaN             NaN             NaN
             NaN             NaN             NaN
             NaN             NaN             NaN
             NaN             NaN             NaN
             NaN             NaN             NaN
             NaN             NaN             NaN
             NaN             NaN             NaN
             NaN             NaN             NaN
             NaN             NaN             NaN
             NaN             NaN             NaN
