H   Ge  C                               
   1.00000000000000     
    16.1900300000000001    0.0000000000000000    0.0000000000000000
     0.0000000000000000   16.1900300000000001    0.0000000000000000
     0.0000000000000000    0.0000000000000000   30.0000000000000000
   H    Ge   C 
  44  96   8
Selective dynamics
Direct
  0.0000000000000000  0.9222728059799792  0.0018826448666687   F   F   F
  0.0000000000000000  0.0777272039644146  0.0018826448666687   F   F   F
  0.0000000000000000  0.3277271741312404  0.0018826448666687   F   F   F
  0.0000000000000000  0.1722727861529592  0.0018826448666687   F   F   F
  0.0000000000000000  0.6722727463753913  0.0018826448666687   F   F   F
  0.0000000000000000  0.8277271543042204  0.0018826448666687   F   F   F
  0.0000000000000000  0.5777271543042204  0.0018826448666687   F   F   F
  0.0000000000000000  0.4222727662641788  0.0018826448666687   F   F   F
  0.2499999701668258  0.9222728059799792  0.0018826448666687   F   F   F
  0.2499999701668258  0.0777272039644146  0.0018826448666687   F   F   F
  0.2499999701668258  0.3277271741312404  0.0018826448666687   F   F   F
  0.2499999701668258  0.1722727861529592  0.0018826448666687   F   F   F
  0.2499999701668258  0.6722727463753913  0.0018826448666687   F   F   F
  0.2499999701668258  0.8277271543042204  0.0018826448666687   F   F   F
  0.2499999701668258  0.5777271543042204  0.0018826448666687   F   F   F
  0.2499999701668258  0.4222727662641788  0.0018826448666687   F   F   F
  0.4999999403954192  0.9222728059799792  0.0018826448666687   F   F   F
  0.4999999403954192  0.0777272039644146  0.0018826448666687   F   F   F
  0.4999999403954192  0.3277271741312404  0.0018826448666687   F   F   F
  0.4999999403954192  0.1722727861529592  0.0018826448666687   F   F   F
  0.4999999403954192  0.6722727463753913  0.0018826448666687   F   F   F
  0.4999999403954192  0.8277271543042204  0.0018826448666687   F   F   F
  0.4999999403954192  0.5777271543042204  0.0018826448666687   F   F   F
  0.4999999403954192  0.4222727662641788  0.0018826448666687   F   F   F
  0.7499999403954192  0.9222728059799792  0.0018826448666687   F   F   F
  0.7499999403954192  0.0777272039644146  0.0018826448666687   F   F   F
  0.7499999403954192  0.3277271741312404  0.0018826448666687   F   F   F
  0.7499999403954192  0.1722727861529592  0.0018826448666687   F   F   F
  0.7499999403954192  0.6722727463753913  0.0018826448666687   F   F   F
  0.7499999403954192  0.8277271543042204  0.0018826448666687   F   F   F
  0.7499999403954192  0.5777271543042204  0.0018826448666687   F   F   F
  0.7499999403954192  0.4222727662641788  0.0018826448666687   F   F   F
  0.5476000970628837  0.6731185667266461  0.3710596123943234   T   T   T
  0.6508203822291839  0.6638830598234242  0.3890483429187486   T   T   T
  0.5378897999946197  0.6121103685638295  0.4428844579073790   T   T   T
  0.5150550802855941  0.5328466902348834  0.4046453579115151   T   T   T
  0.7237075542934077  0.4925564756466744  0.3893379117440289   T   T   T
  0.6761470280099807  0.5586334520160424  0.4572449132427972   T   T   T
  0.6004995235819189  0.4825570582594002  0.4666185393018821   T   T   T
  0.5915185262206220  0.3827224843353359  0.3109286979807582   T   T   T
  0.6974836349994570  0.4017258357915366  0.3185895630309182   T   T   T
  0.7195666761290943  0.4200472804816306  0.4325682676375677   T   T   T
  0.5619139481447707  0.4046531266646624  0.3902986677550650   T   T   T
  0.6452450781243215  0.3355486442212822  0.3857449601836156   T   T   T
  0.0000000000000000  0.0000000099443938  0.0315882173333364   F   F   F
  0.0000000000000000  0.4999999503398059  0.0315882173333364   F   F   F
  0.2499999701668258  0.7499999502780383  0.0315882173333364   F   F   F
  0.2499999701668258  0.2499999801112196  0.0315882173333364   F   F   F
  0.4999999403954192  0.4999999503398059  0.0315882173333364   F   F   F
  0.7499999403954192  0.7499999502780383  0.0315882173333364   F   F   F
  0.4999999403954192  0.0000000099443938  0.0315882173333364   F   F   F
  0.7499999403954192  0.2499999801112196  0.0315882173333364   F   F   F
  0.2499999701668258  0.0000000099443938  0.0315882173333364   F   F   F
  0.2499999701668258  0.4999999503398059  0.0315882173333364   F   F   F
  0.4999999403954192  0.7499999502780383  0.0315882173333364   F   F   F
  0.4999999403954192  0.2499999801112196  0.0315882173333364   F   F   F
  0.7499999403954192  0.4999999503398059  0.0315882173333364   F   F   F
  0.0000000000000000  0.7499999502780383  0.0315882173333364   F   F   F
  0.7499999403954192  0.0000000099443938  0.0315882173333364   F   F   F
  0.0000000000000000  0.2499999801112196  0.0315882173333364   F   F   F
  0.1249999851142931  0.0000000099443938  0.0793602253333319   F   F   F
  0.1249999851142931  0.4999999503398059  0.0793602253333319   F   F   F
  0.3749999702285933  0.7499999502780383  0.0793602253333319   F   F   F
  0.3749999702285933  0.2499999801112196  0.0793602253333319   F   F   F
  0.6249999403954192  0.4999999503398059  0.0793602253333319   F   F   F
  0.8749999403954192  0.7499999502780383  0.0793602253333319   F   F   F
  0.6249999403954192  0.0000000099443938  0.0793602253333319   F   F   F
  0.8749999403954192  0.2499999801112196  0.0793602253333319   F   F   F
  0.3749999702285933  0.0000000099443938  0.0793602253333319   F   F   F
  0.3749999702285933  0.4999999503398059  0.0793602253333319   F   F   F
  0.6249999403954192  0.7499999502780383  0.0793602253333319   F   F   F
  0.6249999403954192  0.2499999801112196  0.0793602253333319   F   F   F
  0.8749999403954192  0.4999999503398059  0.0793602253333319   F   F   F
  0.1249999851142931  0.7499999502780383  0.0793602253333319   F   F   F
  0.8749999403954192  0.0000000099443938  0.0793602253333319   F   F   F
  0.1249999851142931  0.2499999801112196  0.0793602253333319   F   F   F
  0.1251098637652749  0.1243568377245276  0.1250824854564200   T   T   T
  0.1248764949396595  0.6255748352798798  0.1251238436501679   T   T   T
  0.3749312576128255  0.3748555018675751  0.1285270933053760   T   T   T
  0.3751682206436608  0.8748106547360348  0.1292484099471114   T   T   T
  0.6251075882692280  0.1243195547193462  0.1250851295691179   T   T   T
  0.8751224663054038  0.3749241549065479  0.1285921957493041   T   T   T
  0.8749462164699683  0.8747630154088155  0.1292767431919049   T   T   T
  0.6246906459508383  0.6255555074765374  0.1252512455620258   T   T   T
  0.1250761503361502  0.8749282884910873  0.1287069989401809   T   T   T
  0.1250732177246145  0.3750086217292662  0.1292388122502691   T   T   T
  0.3752192309422293  0.1256226658826428  0.1251234982717694   T   T   T
  0.3742113769563951  0.6248388732870939  0.1248401027490480   T   T   T
  0.6249828085411997  0.8748081248547276  0.1286688122694209   T   T   T
  0.8750582270837123  0.1256154700834880  0.1251339422957713   T   T   T
  0.8755384450908874  0.6247860669275609  0.1249587175005403   T   T   T
  0.6250269873705517  0.3749234442149590  0.1292488835351956   T   T   T
  0.2497732431101185  0.8745482230721313  0.1783412270401031   T   T   T
  0.2505087064177853  0.3749656673174405  0.1782922994731658   T   T   T
  0.5002139395000363  0.1245368133729582  0.1719323642425140   T   T   T
  0.4986157993037711  0.6241098693433869  0.1711392292638276   T   T   T
  0.7495476627927615  0.8739865845042996  0.1784073037708265   T   T   T
  1.0001043130814797  0.1248710953215409  0.1718266946438567   T   T   T
  0.0001256358844013  0.6249072741229199  0.1719120670691061   T   T   T
  0.7505888955794884  0.3745945605233995  0.1782762550623625   T   T   T
  0.2501583753990139  0.1248346879266688  0.1717893275144451   T   T   T
  0.2496849680393661  0.6248486936923373  0.1718446432039376   T   T   T
  0.4993704087440993  0.3747722499590747  0.1781241383789998   T   T   T
  0.5004790510802714  0.8739319615433929  0.1784293735514521   T   T   T
  0.7500644398474617  0.1244703247752300  0.1718829699818455   T   T   T
  0.9996661906384210  0.3748964178307147  0.1782952078367850   T   T   T
  0.0004354061442485  0.8745829603657462  0.1783604246345419   T   T   T
  0.7506838971898815  0.6242568036611050  0.1711668542251292   T   T   T
  0.9915191701495223  0.5039116081308109  0.2246964702046742   T   T   T
  0.2589387349771798  0.2457702566789592  0.2245886545874317   T   T   T
  0.0090251373611621  0.0039095255219566  0.2245931287915358   T   T   T
  0.2410616545508365  0.7453825994841166  0.2248403454890268   T   T   T
  0.5090522139680217  0.0033909009070879  0.2247204217781320   T   T   T
  0.7588186764187718  0.2455836741026729  0.2246320938032264   T   T   T
  0.7429437581048205  0.7437693491130621  0.2244818923853422   T   T   T
  0.4905729834149840  0.5051617276423384  0.2226642573001945   T   T   T
  0.2595733286667040  0.5038991537059602  0.2247639817607021   T   T   T
  0.4909126611938412  0.2458616766542046  0.2246215930544234   T   T   T
  0.2410666685410680  0.0038706073964007  0.2245602711711059   T   T   T
  0.5080380632247244  0.7440005425086286  0.2245613667949059   T   T   T
  0.7608698082591341  0.5052736189041069  0.2227343164430686   T   T   T
  0.0100055373927098  0.7455793313204673  0.2249638782128133   T   T   T
  0.9908903107345806  0.2458044417656598  0.2246739187644679   T   T   T
  0.7409797954581159  0.0034097307637405  0.2247451558674407   T   T   T
  0.1255893204407944  0.5607350908247520  0.2511384186385198   T   T   T
  0.6252319313164416  0.5512428598820265  0.2545407553642839   T   T   T
  0.6248049639263592  0.1888376708223137  0.2509620419121041   T   T   T
  0.1249283339046274  0.1890152845646091  0.2508791048948808   T   T   T
  0.3746118790158496  0.6874172660088841  0.2507618640484299   T   T   T
  0.8766169193711109  0.6874054862745829  0.2507823362765991   T   T   T
  0.3750996506462935  0.0605541285218929  0.2509427651660346   T   T   T
  0.8749385681558803  0.0605312825934897  0.2509806962814768   T   T   T
  0.6253361448433713  0.7055500102495668  0.2777281021969857   T   T   T
  0.1255767575593129  0.7114838035219673  0.2802445136002378   T   T   T
  0.3769180411623724  0.5370964105916066  0.2792826796954256   T   T   T
  0.8745097237854708  0.5371171186487382  0.2793174489490264   T   T   T
  0.1250693046201990  0.0383526131639782  0.2799219479332207   T   T   T
  0.6249746167029784  0.0381245586703453  0.2800664252361093   T   T   T
  0.3749506100688210  0.2113562762303542  0.2799528554470324   T   T   T
  0.8748208078420268  0.2113510703753012  0.2799961416207900   T   T   T
  0.5960276794242088  0.6278555417900537  0.3791051925190710   T   T   T
  0.5656700286436962  0.5714815941339559  0.4175360655986433   T   T   T
  0.6146268270796609  0.5777212203240851  0.3397030709149323   T   T   T
  0.6241659662285575  0.5088538581702585  0.3199019707586024   T   T   T
  0.6316621673564181  0.5179860611044905  0.4400959999357864   T   T   T
  0.6355558285484250  0.4194964357361186  0.3307752305004599   T   T   T
  0.6803922104479183  0.4575995357713229  0.4104907631672606   T   T   T
  0.6274652768727619  0.4005097846087047  0.3807561135930286   T   T   T
