 S  P  O  C  H                          
   1.00000000000000     
    14.7726000000000006    0.0000000000000000    0.0000000000000000
     0.0000000000000000   11.8110999999999997    0.0000000000000000
    -4.8105158049083681    0.0000000000000000   15.6825888210692685
   S    P    O    C    H 
    16     8     8   120    80
Direct
  0.5762820014988037  0.6133854613229204  0.4047859766641011
  0.9237180344084805  0.1133854234229474  0.0952140003459903
  0.4237180304835277  0.3866145732604664  0.5952139874760576
  0.0762819946393734  0.8866145496554978  0.9047859889803647
  0.3581831899011547  0.7615060135255831  0.6436060430060238
  0.1418168493612484  0.2615060830104241  0.8563939648645942
  0.6418168455890196  0.2384939004118607  0.3563939456096250
  0.8581831896299974  0.7384939892242102  0.1436060412759517
  0.7117484440178146  0.8581201996681642  0.2760506863971415
  0.7882516243260937  0.3581203002610636  0.2239492956605460
  0.2882516311236643  0.1418797038736059  0.7239493009160327
  0.2117484390268700  0.6418797993834318  0.7760506949070844
  0.9202246854828786  0.6803511232148267  0.6080152984252436
  0.5797753477944738  0.1803511223323326  0.8919846907437687
  0.0797753515434323  0.3196488830361872  0.3919846992680576
  0.4202246857393774  0.8196488906146584  0.1080153027621122
  0.4004382237778330  0.8417603422628517  0.4793038504898774
  0.0995617947212111  0.3417603680989529  0.0206961362584082
  0.5995617936215893  0.1582396318169685  0.5206961175886491
  0.9004382277530780  0.6582396584004542  0.9793038549053321
  0.7680522696854908  0.7331559837340791  0.4453581057958971
  0.7319477493518463  0.2331559767941656  0.0546418995936051
  0.2319477548004087  0.2668440191597128  0.5546419072556077
  0.2680522711604496  0.7668440337248583  0.9453581144695065
  0.3679994387388064  0.9522107894341403  0.4370021635198071
  0.1320006213976868  0.4522108321642335  0.0629977903079677
  0.6320006125008319  0.0477891781168864  0.5629977849010572
  0.8679994390877468  0.5477892184336284  0.9370021592432565
  0.7985854012502713  0.6228035313934868  0.4185303946065204
  0.7014145734433868  0.1228035540104315  0.0814696005220981
  0.2014145799620266  0.3771964409634307  0.5814696176727097
  0.2985853944374526  0.8771964813291504  0.9185304126315685
  0.3296885924489459  0.7173561018410197  0.4391875497786373
  0.1703114211590346  0.2173561247448106  0.0608124352675006
  0.6703113920944475  0.2826438925231827  0.5608124054043984
  0.8296886007106821  0.7826438986880788  0.9391875529364455
  0.3816718652003388  0.6380063581224107  0.4112600033591107
  0.1183281227544910  0.1380063846620700  0.0887399563407385
  0.6183281272814583  0.3619935819670985  0.5887399081910516
  0.8816718650541944  0.8619936533278576  0.9112600098493218
  0.4803601491815002  0.6748210379471118  0.4254932961469322
  0.0196399185543683  0.1748210556807024  0.0745067071154395
  0.5196399253208028  0.3251789398520941  0.5745067038001466
  0.9803601514646161  0.8251789662679059  0.9254932947906624
  0.5032173023755178  0.7820449729017085  0.4601202947759120
  0.9967827093057977  0.2820449629710140  0.0398797464626384
  0.4967827095008559  0.2179550175963954  0.5398797369823143
  0.0032172988280692  0.7179550392319740  0.9601202977220566
  0.5967360809619606  0.8145747096546998  0.4688484282175551
  0.9032639496010901  0.3145747145398730  0.0311516345308576
  0.4032639432380307  0.1854252759872708  0.5311516355914065
  0.0967360721544779  0.6854253058822408  0.9688484255980470
  0.6461961572765915  0.7306887187696347  0.4416105087890330
  0.8538038775076231  0.2306886996126067  0.0583895288603244
  0.3538038847501070  0.2693112894880798  0.5583895365775007
  0.1461961562259333  0.7693112889842411  0.9416105143422229
  0.4182175134716815  0.8451542404347521  0.5910224574473730
  0.0817824529066371  0.3451542246203090  0.9089775276297374
  0.5817824534901419  0.1548457526102425  0.4089775098095458
  0.9182175144096405  0.6548457587306800  0.0910224616602804
  0.4806810371724950  0.9164874979327848  0.6475565494028359
  0.0193188667752793  0.4164874201607631  0.8524434388918607
  0.5193188631927796  0.0835125524303848  0.3524434181828653
  0.9806810413006559  0.5835125055052472  0.1475565521312063
  0.4787197521817177  0.9017748336994487  0.7323740857152359
  0.0212801744841542  0.4017748077576684  0.7676259032539647
  0.5212801715921600  0.0982251881092608  0.2676258801220115
  0.9787197605928810  0.5982251719330520  0.2323740870971420
  0.4150177004463842  0.8201543217361476  0.7393470678252783
  0.0849823081156913  0.3201543903661346  0.7606529360945231
  0.5849823053057435  0.1798456061257738  0.2606529209277397
  0.9150177078184214  0.6798456849570300  0.2393470692692219
  0.2318201060575831  0.7117092426506773  0.4423997117797782
  0.2681799103195814  0.2117092795324211  0.0576002601654935
  0.7681799189395235  0.2882907219305864  0.5576002260242348
  0.7318200991827837  0.7882907485115282  0.9423997171065892
  0.1714791345743905  0.8045392803371101  0.4142007753380597
  0.3285209157571742  0.3045392999480114  0.0857992095275435
  0.8285209094116652  0.1954607043358294  0.5857991819946307
  0.6714791345592062  0.6954607148666554  0.9142007800775502
  0.0789527966011150  0.8019774715481063  0.4182663911044742
  0.4210472608877751  0.3019774502981960  0.0817336138326112
  0.9210472716869447  0.1980225715578499  0.5817336063449119
  0.5789527902194891  0.6980225356514183  0.9182663925808754
  0.0460048622739890  0.7080208573593936  0.4520635429325992
  0.4539951751461331  0.2080208173969282  0.0479364692807351
  0.9539951763759902  0.2919792114215696  0.5479364792679462
  0.5460048593115516  0.7919791380695784  0.9520635413805891
  0.1060986365859620  0.6165398549385799  0.4822273100123127
  0.3939013776081453  0.1165398345718458  0.0177726842655161
  0.8939013820263852  0.3834601766555181  0.5177726759526848
  0.6060986279467215  0.8834601476940236  0.9822273108153752
  0.1980549657372777  0.6177343793106047  0.4769373075271517
  0.3019450314211269  0.1177344012678745  0.0230626638433762
  0.8019450315250296  0.3822655900853817  0.5230626368486497
  0.6980549739207262  0.8822656182555733  0.9769373138501649
  0.3450715342874844  0.5318371547982608  0.3673759562337864
  0.1549285144395469  0.0318371607475925  0.1326239986375910
  0.6549285137656824  0.4681628558827029  0.6326239621268499
  0.8450715167929133  0.9681628508846245  0.8673759545057109
  0.2523279465549919  0.5261999962080992  0.3124648418886409
  0.2476721475163544  0.0261999955951069  0.1875351550950697
  0.7476721218236122  0.4737999961695891  0.6875351243044818
  0.7523279088961488  0.9737999875542656  0.8124648317085814
  0.2180121562236010  0.4270544241077161  0.2694740724977933
  0.2819879130672547  0.9270544823740536  0.2305259132000330
  0.7819879033357111  0.5729454836146957  0.7305258942543134
  0.7180121185781303  0.0729455166608162  0.7694740686534374
  0.2750120141342833  0.3310950317471608  0.2807902250649903
  0.2249880496227874  0.8310950799588426  0.2192097760938694
  0.7249880409715672  0.6689048847268566  0.7192097863322289
  0.7750119391475181  0.1689049331303423  0.7807901975619629
  0.3673897503274048  0.3355529200713292  0.3340766712740759
  0.1326103186913983  0.8355529097951759  0.1659233647252805
  0.6326103239475458  0.6644471004264432  0.6659233531963338
  0.8673896726816039  0.1644470885558960  0.8340766262403534
  0.4023486807766972  0.4353051165865622  0.3766572652130762
  0.0976513847640774  0.9353051471561429  0.1233427200217889
  0.5976513673808128  0.5646948602637920  0.6233426873055379
  0.9023486393476361  0.0646948555490923  0.8766572517344429
  0.7793277317813363  0.8508717867571249  0.3813050395845679
  0.7206722982461500  0.3508718125977026  0.1186949559621624
  0.2206723141907503  0.1491281864644805  0.6186949572671310
  0.2793277422408451  0.6491282330791890  0.8813050412598926
  0.8420683062876222  0.9405250359682569  0.4006133007041726
  0.6579316236072046  0.4405249359485737  0.0993867183584314
  0.1579316354264932  0.0594750531983337  0.5993867160651050
  0.3420683249606000  0.5594750027576794  0.9006132979775785
  0.8344605941467904  0.0131730564176138  0.3304094563060005
  0.6655392762499019  0.5131729498962798  0.1695905624291640
  0.1655392872911889  0.9868270504419883  0.6695905616352960
  0.3344606158525352  0.4868269695763630  0.8304094664114956
  0.7664654833251348  0.9785131919333736  0.2581154236106045
  0.7335344585100074  0.4785131897442554  0.2418845711926281
  0.2335344648137152  0.0214868127913661  0.7418845763591193
  0.2664654875075740  0.5214868087988052  0.7581154358389739
  0.8344695621718898  0.7716426672592434  0.5507550391354528
  0.6655304739932504  0.2716426587842520  0.9492449612652578
  0.1655304753697706  0.2283573410489979  0.4492449669598884
  0.3344695602375864  0.7283573509261103  0.0507550458372847
  0.8306433191147420  0.8677378095244777  0.5976798289611551
  0.6693567138978267  0.3677378177323121  0.9023201780465797
  0.1693567112062127  0.1322621870233931  0.4023201813731632
  0.3306433174096384  0.6322622049356283  0.0976798368704124
  0.8981319155642709  0.8664634652051078  0.6789933764039304
  0.6018681262537982  0.3664634765239327  0.8210066337781399
  0.1018681267107837  0.1335365292624218  0.3210066372462279
  0.3981319126025298  0.6335365449406751  0.1789933733225553
  0.9516206056258767  0.7691653249747006  0.6930289121600453
  0.5483794335030296  0.2691653395808231  0.8069710835209918
  0.0483794381403371  0.2308346710947191  0.3069710884849783
  0.4516206095296269  0.7308346803126113  0.1930289175139350
  0.5269824804682131  0.9744941265867624  0.6274341807141752
  0.9730173423262656  0.4744939292402606  0.8725658053672731
  0.4730173421282444  0.0255060406539585  0.3725657789231747
  0.0269824922062440  0.5255058736387639  0.1274341847106513
  0.5222795477617836  0.9484330903265175  0.7866559126805512
  0.9777203437230781  0.4484330386537607  0.7133440783173413
  0.4777203312006932  0.0515669679951785  0.2133440591017717
  0.0222795573406458  0.5515669170104758  0.2866559164946736
  0.3977151800219758  0.7935739736825056  0.7960193867714906
  0.1022849159922075  0.2935741545190851  0.7039806326459512
  0.6022848953621605  0.2064258400073129  0.2039806116658980
  0.8977151879893057  0.7064260329140524  0.2960193896091639
  0.6263772609219984  0.8954966050139106  0.4947504861767200
  0.8736226906868794  0.3954966041585877  0.0052496939573956
  0.3736226978508483  0.1045033793237167  0.5052497044617326
  0.1263772596816750  0.6045034093704302  0.9947504846976187
  0.1973581426370146  0.8769359991106498  0.3871367455695705
  0.3026419150050259  0.3769360206317600  0.1128632384253123
  0.8026418968249160  0.1230639868620997  0.6128632052303047
  0.6973581432148990  0.6230639966633333  0.8871367522178559
  0.0321217336201087  0.8729448777648798  0.3938886340481318
  0.4678783261044188  0.3729448432714122  0.1061113731432286
  0.9678783141890150  0.1270551649635294  0.6061113686658501
  0.5321217328964991  0.6270551219557206  0.8938886389032561
  0.9734723162754193  0.7049843022411508  0.4542910828424596
  0.5265277308632221  0.2049841097556921  0.0457089665938497
  0.0265277513328925  0.2950159018324570  0.5457089898759406
  0.4734723218272450  0.7950157077014381  0.9542910764432690
  0.0822013102935912  0.5436251507529875  0.5104578240031401
  0.4177986898331270  0.0436251233649614  0.9895421820882788
  0.9177987075795997  0.4563748745340916  0.4895421738132626
  0.5822013150775760  0.9563748490614685  0.0104578289781472
  0.2441545328588361  0.5462490590973701  0.5011103802197781
  0.2558454434290383  0.0462491117669686  0.9988895713692472
  0.7558454515805479  0.4537508993588020  0.4988895271285898
  0.7441545379543300  0.9537509361263261  0.0011103873397573
  0.2072112494255123  0.6002292275037888  0.3031345796710099
  0.2927887145207677  0.1002292900442967  0.1968654135712598
  0.7927886954721899  0.3997706811079667  0.6968653647498115
  0.7072112494585383  0.8997707553712431  0.8031345918556951
  0.1470394194763855  0.4246872586869372  0.2259036642012546
  0.3529606148916358  0.9246873171654997  0.2740963318998979
  0.8529606103522056  0.5753126437976164  0.7740963148275597
  0.6470393776117973  0.0753126732614220  0.7259036569173531
  0.2470840585581726  0.2534266242884513  0.2478442270454337
  0.2529159884285832  0.7534266822283939  0.2521558499369334
  0.7529159851962532  0.7465732846544952  0.7521558651660669
  0.7470839818186761  0.2465733323743038  0.7478441860027019
  0.4124671441232977  0.2614650048627567  0.3427751280766245
  0.0875328300648661  0.7614651156842598  0.1572249507490611
  0.5875328416277554  0.7385348968246390  0.6572249327325750
  0.9124670706983338  0.2385350118791010  0.8427750784274579
  0.4741479318949047  0.4367012785351747  0.4189692657105368
  0.0258521107689020  0.9367012807568571  0.0810307350643811
  0.5258521080165721  0.5632987458808998  0.5810306896381547
  0.9741479048950410  0.0632987422831732  0.9189692400289005
  0.8911273174731207  0.9531577691370785  0.4634555011040078
  0.6088725554543686  0.4531576070744094  0.0365445274480294
  0.1088725825259544  0.0468423824155266  0.5365445276717153
  0.3911273415136520  0.5468422758095883  0.9634555036848269
  0.8768458503210965  0.0887096838363561  0.3332342307351013
  0.6231537658464390  0.5887093595781963  0.1667658152734148
  0.1231537754417928  0.9112906434007684  0.6667658167234123
  0.3768458873062031  0.4112903456860977  0.8332342448315586
  0.7445757414176413  0.0186326294720516  0.1958825138795675
  0.7554241690816141  0.5186326228957370  0.3041174832212974
  0.2554241658642056  0.9813673888462802  0.8041174842951690
  0.2445757472419459  0.4813673541947026  0.6958825295769842
  0.7805061336102312  0.9359368689765262  0.5747677416696533
  0.7194938811451266  0.4359368826476739  0.9252322810214721
  0.2194938841373002  0.0640631214006078  0.4252322792006780
  0.2805061257151920  0.5640631499871844  0.0747677447171640
  0.9067480945219657  0.9341135714330022  0.7252038059617689
  0.5932519468478148  0.4341135873319288  0.7747962048139030
  0.0932519392196980  0.0658864180398737  0.2747962048883821
  0.4067480979667693  0.5658864278483051  0.2252038041893769
  0.0075038633167566  0.7452658553348641  0.7493991798603119
  0.4924961874689160  0.2452658643832919  0.7506008109364899
  0.9924961896602653  0.2547341546095794  0.2506008154400661
  0.5075038731581643  0.7547341378860892  0.2493991838661813
 
  0.00000000E+00  0.00000000E+00  0.00000000E+00
  0.00000000E+00  0.00000000E+00  0.00000000E+00
  0.00000000E+00  0.00000000E+00  0.00000000E+00
  0.00000000E+00  0.00000000E+00  0.00000000E+00
  0.00000000E+00  0.00000000E+00  0.00000000E+00
  0.00000000E+00  0.00000000E+00  0.00000000E+00
  0.00000000E+00  0.00000000E+00  0.00000000E+00
  0.00000000E+00  0.00000000E+00  0.00000000E+00
  0.00000000E+00  0.00000000E+00  0.00000000E+00
  0.00000000E+00  0.00000000E+00  0.00000000E+00
  0.00000000E+00  0.00000000E+00  0.00000000E+00
  0.00000000E+00  0.00000000E+00  0.00000000E+00
  0.00000000E+00  0.00000000E+00  0.00000000E+00
  0.00000000E+00  0.00000000E+00  0.00000000E+00
  0.00000000E+00  0.00000000E+00  0.00000000E+00
  0.00000000E+00  0.00000000E+00  0.00000000E+00
  0.00000000E+00  0.00000000E+00  0.00000000E+00
  0.00000000E+00  0.00000000E+00  0.00000000E+00
  0.00000000E+00  0.00000000E+00  0.00000000E+00
  0.00000000E+00  0.00000000E+00  0.00000000E+00
  0.00000000E+00  0.00000000E+00  0.00000000E+00
  0.00000000E+00  0.00000000E+00  0.00000000E+00
  0.00000000E+00  0.00000000E+00  0.00000000E+00
  0.00000000E+00  0.00000000E+00  0.00000000E+00
  0.00000000E+00  0.00000000E+00  0.00000000E+00
  0.00000000E+00  0.00000000E+00  0.00000000E+00
  0.00000000E+00  0.00000000E+00  0.00000000E+00
  0.00000000E+00  0.00000000E+00  0.00000000E+00
  0.00000000E+00  0.00000000E+00  0.00000000E+00
  0.00000000E+00  0.00000000E+00  0.00000000E+00
  0.00000000E+00  0.00000000E+00  0.00000000E+00
  0.00000000E+00  0.00000000E+00  0.00000000E+00
  0.00000000E+00  0.00000000E+00  0.00000000E+00
  0.00000000E+00  0.00000000E+00  0.00000000E+00
  0.00000000E+00  0.00000000E+00  0.00000000E+00
  0.00000000E+00  0.00000000E+00  0.00000000E+00
  0.00000000E+00  0.00000000E+00  0.00000000E+00
  0.00000000E+00  0.00000000E+00  0.00000000E+00
  0.00000000E+00  0.00000000E+00  0.00000000E+00
  0.00000000E+00  0.00000000E+00  0.00000000E+00
  0.00000000E+00  0.00000000E+00  0.00000000E+00
  0.00000000E+00  0.00000000E+00  0.00000000E+00
  0.00000000E+00  0.00000000E+00  0.00000000E+00
  0.00000000E+00  0.00000000E+00  0.00000000E+00
  0.00000000E+00  0.00000000E+00  0.00000000E+00
  0.00000000E+00  0.00000000E+00  0.00000000E+00
  0.00000000E+00  0.00000000E+00  0.00000000E+00
  0.00000000E+00  0.00000000E+00  0.00000000E+00
  0.00000000E+00  0.00000000E+00  0.00000000E+00
  0.00000000E+00  0.00000000E+00  0.00000000E+00
  0.00000000E+00  0.00000000E+00  0.00000000E+00
  0.00000000E+00  0.00000000E+00  0.00000000E+00
  0.00000000E+00  0.00000000E+00  0.00000000E+00
  0.00000000E+00  0.00000000E+00  0.00000000E+00
  0.00000000E+00  0.00000000E+00  0.00000000E+00
  0.00000000E+00  0.00000000E+00  0.00000000E+00
  0.00000000E+00  0.00000000E+00  0.00000000E+00
  0.00000000E+00  0.00000000E+00  0.00000000E+00
  0.00000000E+00  0.00000000E+00  0.00000000E+00
  0.00000000E+00  0.00000000E+00  0.00000000E+00
  0.00000000E+00  0.00000000E+00  0.00000000E+00
  0.00000000E+00  0.00000000E+00  0.00000000E+00
  0.00000000E+00  0.00000000E+00  0.00000000E+00
  0.00000000E+00  0.00000000E+00  0.00000000E+00
  0.00000000E+00  0.00000000E+00  0.00000000E+00
  0.00000000E+00  0.00000000E+00  0.00000000E+00
  0.00000000E+00  0.00000000E+00  0.00000000E+00
  0.00000000E+00  0.00000000E+00  0.00000000E+00
  0.00000000E+00  0.00000000E+00  0.00000000E+00
  0.00000000E+00  0.00000000E+00  0.00000000E+00
  0.00000000E+00  0.00000000E+00  0.00000000E+00
  0.00000000E+00  0.00000000E+00  0.00000000E+00
  0.00000000E+00  0.00000000E+00  0.00000000E+00
  0.00000000E+00  0.00000000E+00  0.00000000E+00
  0.00000000E+00  0.00000000E+00  0.00000000E+00
  0.00000000E+00  0.00000000E+00  0.00000000E+00
  0.00000000E+00  0.00000000E+00  0.00000000E+00
  0.00000000E+00  0.00000000E+00  0.00000000E+00
  0.00000000E+00  0.00000000E+00  0.00000000E+00
  0.00000000E+00  0.00000000E+00  0.00000000E+00
  0.00000000E+00  0.00000000E+00  0.00000000E+00
  0.00000000E+00  0.00000000E+00  0.00000000E+00
  0.00000000E+00  0.00000000E+00  0.00000000E+00
  0.00000000E+00  0.00000000E+00  0.00000000E+00
  0.00000000E+00  0.00000000E+00  0.00000000E+00
  0.00000000E+00  0.00000000E+00  0.00000000E+00
  0.00000000E+00  0.00000000E+00  0.00000000E+00
  0.00000000E+00  0.00000000E+00  0.00000000E+00
  0.00000000E+00  0.00000000E+00  0.00000000E+00
  0.00000000E+00  0.00000000E+00  0.00000000E+00
  0.00000000E+00  0.00000000E+00  0.00000000E+00
  0.00000000E+00  0.00000000E+00  0.00000000E+00
  0.00000000E+00  0.00000000E+00  0.00000000E+00
  0.00000000E+00  0.00000000E+00  0.00000000E+00
  0.00000000E+00  0.00000000E+00  0.00000000E+00
  0.00000000E+00  0.00000000E+00  0.00000000E+00
  0.00000000E+00  0.00000000E+00  0.00000000E+00
  0.00000000E+00  0.00000000E+00  0.00000000E+00
  0.00000000E+00  0.00000000E+00  0.00000000E+00
  0.00000000E+00  0.00000000E+00  0.00000000E+00
  0.00000000E+00  0.00000000E+00  0.00000000E+00
  0.00000000E+00  0.00000000E+00  0.00000000E+00
  0.00000000E+00  0.00000000E+00  0.00000000E+00
  0.00000000E+00  0.00000000E+00  0.00000000E+00
  0.00000000E+00  0.00000000E+00  0.00000000E+00
  0.00000000E+00  0.00000000E+00  0.00000000E+00
  0.00000000E+00  0.00000000E+00  0.00000000E+00
  0.00000000E+00  0.00000000E+00  0.00000000E+00
  0.00000000E+00  0.00000000E+00  0.00000000E+00
  0.00000000E+00  0.00000000E+00  0.00000000E+00
  0.00000000E+00  0.00000000E+00  0.00000000E+00
  0.00000000E+00  0.00000000E+00  0.00000000E+00
  0.00000000E+00  0.00000000E+00  0.00000000E+00
  0.00000000E+00  0.00000000E+00  0.00000000E+00
  0.00000000E+00  0.00000000E+00  0.00000000E+00
  0.00000000E+00  0.00000000E+00  0.00000000E+00
  0.00000000E+00  0.00000000E+00  0.00000000E+00
  0.00000000E+00  0.00000000E+00  0.00000000E+00
  0.00000000E+00  0.00000000E+00  0.00000000E+00
  0.00000000E+00  0.00000000E+00  0.00000000E+00
  0.00000000E+00  0.00000000E+00  0.00000000E+00
  0.00000000E+00  0.00000000E+00  0.00000000E+00
  0.00000000E+00  0.00000000E+00  0.00000000E+00
  0.00000000E+00  0.00000000E+00  0.00000000E+00
  0.00000000E+00  0.00000000E+00  0.00000000E+00
  0.00000000E+00  0.00000000E+00  0.00000000E+00
  0.00000000E+00  0.00000000E+00  0.00000000E+00
  0.00000000E+00  0.00000000E+00  0.00000000E+00
  0.00000000E+00  0.00000000E+00  0.00000000E+00
  0.00000000E+00  0.00000000E+00  0.00000000E+00
  0.00000000E+00  0.00000000E+00  0.00000000E+00
  0.00000000E+00  0.00000000E+00  0.00000000E+00
  0.00000000E+00  0.00000000E+00  0.00000000E+00
  0.00000000E+00  0.00000000E+00  0.00000000E+00
  0.00000000E+00  0.00000000E+00  0.00000000E+00
  0.00000000E+00  0.00000000E+00  0.00000000E+00
  0.00000000E+00  0.00000000E+00  0.00000000E+00
  0.00000000E+00  0.00000000E+00  0.00000000E+00
  0.00000000E+00  0.00000000E+00  0.00000000E+00
  0.00000000E+00  0.00000000E+00  0.00000000E+00
  0.00000000E+00  0.00000000E+00  0.00000000E+00
  0.00000000E+00  0.00000000E+00  0.00000000E+00
  0.00000000E+00  0.00000000E+00  0.00000000E+00
  0.00000000E+00  0.00000000E+00  0.00000000E+00
  0.00000000E+00  0.00000000E+00  0.00000000E+00
  0.00000000E+00  0.00000000E+00  0.00000000E+00
  0.00000000E+00  0.00000000E+00  0.00000000E+00
  0.00000000E+00  0.00000000E+00  0.00000000E+00
  0.00000000E+00  0.00000000E+00  0.00000000E+00
  0.00000000E+00  0.00000000E+00  0.00000000E+00
  0.00000000E+00  0.00000000E+00  0.00000000E+00
  0.00000000E+00  0.00000000E+00  0.00000000E+00
  0.00000000E+00  0.00000000E+00  0.00000000E+00
  0.00000000E+00  0.00000000E+00  0.00000000E+00
  0.00000000E+00  0.00000000E+00  0.00000000E+00
  0.00000000E+00  0.00000000E+00  0.00000000E+00
  0.00000000E+00  0.00000000E+00  0.00000000E+00
  0.00000000E+00  0.00000000E+00  0.00000000E+00
  0.00000000E+00  0.00000000E+00  0.00000000E+00
  0.00000000E+00  0.00000000E+00  0.00000000E+00
  0.00000000E+00  0.00000000E+00  0.00000000E+00
  0.00000000E+00  0.00000000E+00  0.00000000E+00
  0.00000000E+00  0.00000000E+00  0.00000000E+00
  0.00000000E+00  0.00000000E+00  0.00000000E+00
  0.00000000E+00  0.00000000E+00  0.00000000E+00
  0.00000000E+00  0.00000000E+00  0.00000000E+00
  0.00000000E+00  0.00000000E+00  0.00000000E+00
  0.00000000E+00  0.00000000E+00  0.00000000E+00
  0.00000000E+00  0.00000000E+00  0.00000000E+00
  0.00000000E+00  0.00000000E+00  0.00000000E+00
  0.00000000E+00  0.00000000E+00  0.00000000E+00
  0.00000000E+00  0.00000000E+00  0.00000000E+00
  0.00000000E+00  0.00000000E+00  0.00000000E+00
  0.00000000E+00  0.00000000E+00  0.00000000E+00
  0.00000000E+00  0.00000000E+00  0.00000000E+00
  0.00000000E+00  0.00000000E+00  0.00000000E+00
  0.00000000E+00  0.00000000E+00  0.00000000E+00
  0.00000000E+00  0.00000000E+00  0.00000000E+00
  0.00000000E+00  0.00000000E+00  0.00000000E+00
  0.00000000E+00  0.00000000E+00  0.00000000E+00
  0.00000000E+00  0.00000000E+00  0.00000000E+00
  0.00000000E+00  0.00000000E+00  0.00000000E+00
  0.00000000E+00  0.00000000E+00  0.00000000E+00
  0.00000000E+00  0.00000000E+00  0.00000000E+00
  0.00000000E+00  0.00000000E+00  0.00000000E+00
  0.00000000E+00  0.00000000E+00  0.00000000E+00
  0.00000000E+00  0.00000000E+00  0.00000000E+00
  0.00000000E+00  0.00000000E+00  0.00000000E+00
  0.00000000E+00  0.00000000E+00  0.00000000E+00
  0.00000000E+00  0.00000000E+00  0.00000000E+00
  0.00000000E+00  0.00000000E+00  0.00000000E+00
  0.00000000E+00  0.00000000E+00  0.00000000E+00
  0.00000000E+00  0.00000000E+00  0.00000000E+00
  0.00000000E+00  0.00000000E+00  0.00000000E+00
  0.00000000E+00  0.00000000E+00  0.00000000E+00
  0.00000000E+00  0.00000000E+00  0.00000000E+00
  0.00000000E+00  0.00000000E+00  0.00000000E+00
  0.00000000E+00  0.00000000E+00  0.00000000E+00
  0.00000000E+00  0.00000000E+00  0.00000000E+00
  0.00000000E+00  0.00000000E+00  0.00000000E+00
  0.00000000E+00  0.00000000E+00  0.00000000E+00
  0.00000000E+00  0.00000000E+00  0.00000000E+00
  0.00000000E+00  0.00000000E+00  0.00000000E+00
  0.00000000E+00  0.00000000E+00  0.00000000E+00
  0.00000000E+00  0.00000000E+00  0.00000000E+00
  0.00000000E+00  0.00000000E+00  0.00000000E+00
  0.00000000E+00  0.00000000E+00  0.00000000E+00
  0.00000000E+00  0.00000000E+00  0.00000000E+00
  0.00000000E+00  0.00000000E+00  0.00000000E+00
  0.00000000E+00  0.00000000E+00  0.00000000E+00
  0.00000000E+00  0.00000000E+00  0.00000000E+00
  0.00000000E+00  0.00000000E+00  0.00000000E+00
  0.00000000E+00  0.00000000E+00  0.00000000E+00
  0.00000000E+00  0.00000000E+00  0.00000000E+00
  0.00000000E+00  0.00000000E+00  0.00000000E+00
  0.00000000E+00  0.00000000E+00  0.00000000E+00
  0.00000000E+00  0.00000000E+00  0.00000000E+00
  0.00000000E+00  0.00000000E+00  0.00000000E+00
  0.00000000E+00  0.00000000E+00  0.00000000E+00
  0.00000000E+00  0.00000000E+00  0.00000000E+00
  0.00000000E+00  0.00000000E+00  0.00000000E+00
  0.00000000E+00  0.00000000E+00  0.00000000E+00
  0.00000000E+00  0.00000000E+00  0.00000000E+00
  0.00000000E+00  0.00000000E+00  0.00000000E+00
  0.00000000E+00  0.00000000E+00  0.00000000E+00
  0.00000000E+00  0.00000000E+00  0.00000000E+00
  0.00000000E+00  0.00000000E+00  0.00000000E+00
  0.00000000E+00  0.00000000E+00  0.00000000E+00
  0.00000000E+00  0.00000000E+00  0.00000000E+00
  0.00000000E+00  0.00000000E+00  0.00000000E+00
  0.00000000E+00  0.00000000E+00  0.00000000E+00
  0.00000000E+00  0.00000000E+00  0.00000000E+00
