Si H C O                                
   1.00000000000000     
     7.6621999740000000    0.0000000000000000    0.0000000000000000
    -0.0000006700000000   15.3243999479999999    0.0000000000000000
    -0.0000007340000000   -0.0000007340000000   26.7875003810000010
   Si   H    C    O 
    48    24     4     1
Selective dynamics
Direct
  0.0982437263469365  0.0000000011734684  0.0289689852776362   F   F   F
  0.0982437493469206  0.2500002971734503  0.0289689852776362   F   F   F
  0.5982443673469362  0.0000000011734684  0.0289689852776362   F   F   F
  0.0982437713469366  0.5000005951734465  0.0289689852776362   F   F   F
  0.5982443673469362  0.2500002971734503  0.0289689852776362   F   F   F
  0.0982437933469384  0.7500008931734712  0.0289689852776362   F   F   F
  0.5982444273469341  0.5000005951734465  0.0289689852776362   F   F   F
  0.5982444273469341  0.7500008931734712  0.0289689852776362   F   F   F
  0.3481889148011277  0.9995021537364082  0.0796618693222371   F   F   F
  0.3482099635546092  0.2528227589216314  0.0806418874415229   F   F   F
  0.8482098579643207  0.9984169186223255  0.0807822717142628   F   F   F
  0.3481536313616118  0.4981877663151266  0.0807373416799066   F   F   F
  0.8482139166747302  0.2521299693376946  0.0802085390540554   F   F   F
  0.3481955688590048  0.7531385895576648  0.0800458566958042   F   F   F
  0.8482115512265835  0.4972844060945292  0.0801440306302297   F   F   F
  0.8483293512469317  0.7520680719318165  0.0806932257095596   F   F   F
  0.3478477086888176  0.1251126358877457  0.1274003650645312   T   T   T
  0.3480008335909517  0.3756716467422265  0.1349608171164789   T   T   T
  0.8488253452249523  0.1255986921337353  0.1279060974004338   T   T   T
  0.3484598470040794  0.6265559871474977  0.1274102805682062   T   T   T
  0.8483646485739769  0.3748421684988443  0.1337844873021581   T   T   T
  0.3482594589071013  0.8764496658029088  0.1335087276586790   T   T   T
  0.8486050250223727  0.6239309385608465  0.1272586830811662   T   T   T
  0.8483597095383431  0.8754686148463264  0.1350985634773068   T   T   T
  0.0989480817754611  0.1258096851779626  0.1769289856104947   T   T   T
  0.0963849126775358  0.3745161011814702  0.1868445928515214   T   T   T
  0.5977433008762389  0.1249851678690206  0.1763367240706160   T   T   T
  0.0981831501676567  0.6257062306328649  0.1767653951202632   T   T   T
  0.5999149899338647  0.3747445677370180  0.1865858092648693   T   T   T
  0.1006206328921806  0.8771270090448411  0.1869344847650538   T   T   T
  0.5989746213690950  0.6256885098378717  0.1766708470282765   T   T   T
  0.5959928261544079  0.8769362508002487  0.1868705153944887   T   T   T
  0.1169867085076817  0.0083109610228860  0.2345264235795383   T   T   T
  0.0866541497703253  0.2426348015844653  0.2332619623738879   T   T   T
  0.5795323943115775  0.0081308587120859  0.2343524939545816   T   T   T
  0.0817173038242629  0.5063490990420831  0.2335384491571588   T   T   T
  0.6086761410471198  0.2420323314100443  0.2320482234643677   T   T   T
  0.1141103061844930  0.7449751345061202  0.2336104394875491   T   T   T
  0.6151747856114582  0.5064915634282343  0.2334104964702917   T   T   T
  0.5827061108252352  0.7448498919686202  0.2335669724625902   T   T   T
  0.3485594859597612  0.0414937792154007  0.2913683153008222   T   T   T
  0.3490915926112876  0.1946456630831861  0.2704024857728342   T   T   T
  0.8480270230706992  0.0636503585852708  0.2610494715176372   T   T   T
  0.3484684967245002  0.5636211695010047  0.2609692352196049   T   T   T
  0.8453524346358847  0.2106692122231593  0.2868443319057548   T   T   T
  0.3484173159713251  0.7098121853192012  0.2888962526893692   T   T   T
  0.8484198319037475  0.5405410483193478  0.2895292006704793   T   T   T
  0.8484412876062279  0.6881450775942213  0.2618600078767983   T   T   T
  0.0982437210000029  0.9179475529999408  0.0000000000000000   F   F   F
  0.0982437879999978  0.0820524620000000  0.0000000162939813   F   F   F
  0.0982437429999976  0.1679478439999968  0.0000000000000000   F   F   F
  0.0982438099999854  0.3320527369999837  0.0000000162939813   F   F   F
  0.5982443090000018  0.0820524470000024  0.0000000000000000   F   F   F
  0.5982443089999379  0.9179475379999502  0.0000000162939813   F   F   F
  0.0982437660000031  0.4179481569999766  0.0000000000000000   F   F   F
  0.0982438329999979  0.5820530649999611  0.0000000162939813   F   F   F
  0.5982443089999663  0.3320527079999991  0.0000000000000000   F   F   F
  0.5982443089999734  0.1679478289999992  0.0000000162939813   F   F   F
  0.0982437950000019  0.6679484840000001  0.0000000000000000   F   F   F
  0.0982438469999991  0.8320534229999552  0.0000000162939813   F   F   F
  0.5982443689999997  0.5820530060000024  0.0000000000000000   F   F   F
  0.5982443689999712  0.4179481269999812  0.0000000162939813   F   F   F
  0.5982443689999997  0.8320533629999431  0.0000000000000000   F   F   F
  0.5982443689999286  0.6679484249999632  0.0000000162939813   F   F   F
  0.3365605648994219  0.3731855524271381  0.2945209294650439   T   T   T
  0.5382945868208537  0.3569630112979567  0.3278276815092269   T   T   T
  0.3968434406917893  0.3863926908588766  0.4076192968559482   T   T   T
  0.2681633182790648  0.4556465306128388  0.3687951485886956   T   T   T
  0.0986398834373077  0.3299701417275429  0.4212527955269039   T   T   T
  0.0463535248577926  0.3414517542581521  0.3567397840444571   T   T   T
  0.2983838299180732  0.2078512980277054  0.4033700985685726   T   T   T
  0.1327385728632393  0.1907438826403691  0.3564378511984572   T   T   T
  0.3958707347082182  0.3497370772503388  0.3295142685339840   T   T   T
  0.3081660797833905  0.3877084445517909  0.3753345834382031   T   T   T
  0.1521609586650499  0.3265480568615473  0.3832823003733523   T   T   T
  0.2272696267131096  0.2373161910871318  0.3720035477456136   T   T   T
  0.3603130598061881  0.2542818653026231  0.3325850379392463   T   T   T
 
  0.00000000E+00  0.00000000E+00  0.00000000E+00
  0.00000000E+00  0.00000000E+00  0.00000000E+00
  0.00000000E+00  0.00000000E+00  0.00000000E+00
  0.00000000E+00  0.00000000E+00  0.00000000E+00
  0.00000000E+00  0.00000000E+00  0.00000000E+00
  0.00000000E+00  0.00000000E+00  0.00000000E+00
  0.00000000E+00  0.00000000E+00  0.00000000E+00
  0.00000000E+00  0.00000000E+00  0.00000000E+00
  0.00000000E+00  0.00000000E+00  0.00000000E+00
  0.00000000E+00  0.00000000E+00  0.00000000E+00
  0.00000000E+00  0.00000000E+00  0.00000000E+00
  0.00000000E+00  0.00000000E+00  0.00000000E+00
  0.00000000E+00  0.00000000E+00  0.00000000E+00
  0.00000000E+00  0.00000000E+00  0.00000000E+00
  0.00000000E+00  0.00000000E+00  0.00000000E+00
  0.00000000E+00  0.00000000E+00  0.00000000E+00
  0.00000000E+00  0.00000000E+00  0.00000000E+00
  0.00000000E+00  0.00000000E+00  0.00000000E+00
  0.00000000E+00  0.00000000E+00  0.00000000E+00
  0.00000000E+00  0.00000000E+00  0.00000000E+00
  0.00000000E+00  0.00000000E+00  0.00000000E+00
  0.00000000E+00  0.00000000E+00  0.00000000E+00
  0.00000000E+00  0.00000000E+00  0.00000000E+00
  0.00000000E+00  0.00000000E+00  0.00000000E+00
  0.00000000E+00  0.00000000E+00  0.00000000E+00
  0.00000000E+00  0.00000000E+00  0.00000000E+00
  0.00000000E+00  0.00000000E+00  0.00000000E+00
  0.00000000E+00  0.00000000E+00  0.00000000E+00
  0.00000000E+00  0.00000000E+00  0.00000000E+00
  0.00000000E+00  0.00000000E+00  0.00000000E+00
  0.00000000E+00  0.00000000E+00  0.00000000E+00
  0.00000000E+00  0.00000000E+00  0.00000000E+00
  0.00000000E+00  0.00000000E+00  0.00000000E+00
  0.00000000E+00  0.00000000E+00  0.00000000E+00
  0.00000000E+00  0.00000000E+00  0.00000000E+00
  0.00000000E+00  0.00000000E+00  0.00000000E+00
  0.00000000E+00  0.00000000E+00  0.00000000E+00
  0.00000000E+00  0.00000000E+00  0.00000000E+00
  0.00000000E+00  0.00000000E+00  0.00000000E+00
  0.00000000E+00  0.00000000E+00  0.00000000E+00
  0.00000000E+00  0.00000000E+00  0.00000000E+00
  0.00000000E+00  0.00000000E+00  0.00000000E+00
  0.00000000E+00  0.00000000E+00  0.00000000E+00
  0.00000000E+00  0.00000000E+00  0.00000000E+00
  0.00000000E+00  0.00000000E+00  0.00000000E+00
  0.00000000E+00  0.00000000E+00  0.00000000E+00
  0.00000000E+00  0.00000000E+00  0.00000000E+00
  0.00000000E+00  0.00000000E+00  0.00000000E+00
  0.00000000E+00  0.00000000E+00  0.00000000E+00
  0.00000000E+00  0.00000000E+00  0.00000000E+00
  0.00000000E+00  0.00000000E+00  0.00000000E+00
  0.00000000E+00  0.00000000E+00  0.00000000E+00
  0.00000000E+00  0.00000000E+00  0.00000000E+00
  0.00000000E+00  0.00000000E+00  0.00000000E+00
  0.00000000E+00  0.00000000E+00  0.00000000E+00
  0.00000000E+00  0.00000000E+00  0.00000000E+00
  0.00000000E+00  0.00000000E+00  0.00000000E+00
  0.00000000E+00  0.00000000E+00  0.00000000E+00
  0.00000000E+00  0.00000000E+00  0.00000000E+00
  0.00000000E+00  0.00000000E+00  0.00000000E+00
  0.00000000E+00  0.00000000E+00  0.00000000E+00
  0.00000000E+00  0.00000000E+00  0.00000000E+00
  0.00000000E+00  0.00000000E+00  0.00000000E+00
  0.00000000E+00  0.00000000E+00  0.00000000E+00
  0.00000000E+00  0.00000000E+00  0.00000000E+00
  0.00000000E+00  0.00000000E+00  0.00000000E+00
  0.00000000E+00  0.00000000E+00  0.00000000E+00
  0.00000000E+00  0.00000000E+00  0.00000000E+00
  0.00000000E+00  0.00000000E+00  0.00000000E+00
  0.00000000E+00  0.00000000E+00  0.00000000E+00
  0.00000000E+00  0.00000000E+00  0.00000000E+00
  0.00000000E+00  0.00000000E+00  0.00000000E+00
  0.00000000E+00  0.00000000E+00  0.00000000E+00
  0.00000000E+00  0.00000000E+00  0.00000000E+00
  0.00000000E+00  0.00000000E+00  0.00000000E+00
  0.00000000E+00  0.00000000E+00  0.00000000E+00
  0.00000000E+00  0.00000000E+00  0.00000000E+00
